72 82 33 71 41 36 7 6 87 64 84 70 60 8 94 68 26 77 58 
39 28 76 79 88 12 44 20 3 49 59 97 
92 29 42 73 11 16 18 95 65 47 14 99 89 34 66 93 43 37 55 24 48 
98 40 53 15 86 46 17 13 
67 80 
61 2 52 45 90 69 81 30 57 78 5 32 74 91 
62 27 38 51 63 31 85 21 23 75 25 19 22 10 83 9 96 56 50 54 35 1 4 100 

